\ This file has been generated by DOcplex
\ ENCODING=ISO-8859-1
\Problem name: UFLP

Minimize
 obj: 1036854 X_(0,_4) + 726309 X_(0,_5) + 76690 X_(0,_21) + 761420 X_(0,_2)
      + 592205 X_(1,_0) + 34594 X_(1,_4) + 153567 X_(1,_5) + 611779 X_(1,_21)
      + 133318 X_(1,_2) + 148556 X_(10,_0) + 18380 X_(10,_4) + 31862 X_(10,_5)
      + 153514 X_(10,_21) + 26294 X_(10,_2) + 85810 X_(11,_0) + 66759 X_(11,_4)
      + 21012 X_(11,_5) + 90446 X_(11,_21) + 26129 X_(11,_2) + 279590 X_(12,_0)
      + 312325 X_(12,_4) + 135789 X_(12,_5) + 300345 X_(12,_21)
      + 156364 X_(12,_2) + 88506 X_(13,_0) + 58567 X_(13,_4) + 14487 X_(13,_5)
      + 93113 X_(13,_21) + 19542 X_(13,_2) + 98174 X_(14,_0) + 42816 X_(14,_4)
      + 1420 X_(14,_5) + 102343 X_(14,_21) + 5207 X_(14,_2) + 93205 X_(15,_0)
      + 35308 X_(15,_4) + 3277 X_(15,_5) + 97085 X_(15,_21) + 1541 X_(15,_2)
      + 24457 X_(16,_0) + 103654 X_(16,_4) + 65608 X_(16,_5) + 30658 X_(16,_21)
      + 70023 X_(16,_2) + 97714 X_(17,_0) + 24206 X_(17,_4) + 12752 X_(17,_5)
      + 101195 X_(17,_21) + 8520 X_(17,_2) + 37789 X_(18,_0) + 77046 X_(18,_4)
      + 42628 X_(18,_5) + 41551 X_(18,_21) + 46500 X_(18,_2) + 110761 X_(19,_0)
      + 3805 X_(19,_4) + 30584 X_(19,_5) + 114292 X_(19,_21) + 26842 X_(19,_2)
      + 165747 X_(2,_0) + 60393 X_(2,_4) + 8016 X_(2,_5) + 172370 X_(2,_21)
      + 52095 X_(20,_0) + 57504 X_(20,_4) + 24691 X_(20,_5) + 55723 X_(20,_21)
      + 28450 X_(20,_2) + 7324 X_(21,_0) + 102109 X_(21,_4) + 72396 X_(21,_5)
      + 75628 X_(21,_2) + 53446 X_(22,_0) + 43361 X_(22,_4) + 14333 X_(22,_5)
      + 56431 X_(22,_21) + 17603 X_(22,_2) + 331994 X_(23,_0) + 120113 X_(23,_4)
      + 18009 X_(23,_5) + 344922 X_(23,_21) + 3170 X_(23,_2) + 55583 X_(24,_0)
      + 34114 X_(24,_4) + 7218 X_(24,_5) + 58354 X_(24,_21) + 10286 X_(24,_2)
      + 44126 X_(25,_0) + 42228 X_(25,_4) + 16342 X_(25,_5) + 46848 X_(25,_21)
      + 19272 X_(25,_2) + 47298 X_(26,_0) + 34626 X_(26,_4) + 10074 X_(26,_5)
      + 49878 X_(26,_21) + 12883 X_(26,_2) + 49368 X_(27,_0) + 13196 X_(27,_4)
      + 5599 X_(27,_5) + 51239 X_(27,_21) + 3526 X_(27,_2) + 11413 X_(28,_0)
      + 48699 X_(28,_4) + 30694 X_(28,_5) + 13392 X_(28,_21) + 32706 X_(28,_2)
      + 27032 X_(29,_0) + 27995 X_(29,_4) + 11497 X_(29,_5) + 28743 X_(29,_21)
      + 13352 X_(29,_2) + 188076 X_(3,_0) + 28139 X_(3,_4) + 37092 X_(3,_5)
      + 194392 X_(3,_21) + 29797 X_(3,_2) + 16281 X_(30,_0) + 36511 X_(30,_4)
      + 20728 X_(30,_5) + 18262 X_(30,_21) + 22538 X_(30,_2) + 43841 X_(31,_0)
      + 1232 X_(31,_4) + 13942 X_(31,_5) + 45216 X_(31,_21) + 12575 X_(31,_2)
      + 1453 X_(32,_0) + 40448 X_(32,_4) + 27900 X_(32,_5) + 3692 X_(32,_21)
      + 29314 X_(32,_2) + 38221 X_(33,_0) + 470 X_(33,_4) + 11187 X_(33,_5)
      + 39440 X_(33,_21) + 9941 X_(33,_2) + 365987 X_(34,_0) + 48383 X_(34,_4)
      + 76040 X_(34,_5) + 378521 X_(34,_21) + 62395 X_(34,_2) + 4016 X_(35,_0)
      + 31447 X_(35,_4) + 20919 X_(35,_5) + 4749 X_(35,_21) + 22076 X_(35,_2)
      + 34688 X_(36,_0) + 301 X_(36,_4) + 10213 X_(36,_5) + 35767 X_(36,_21)
      + 9070 X_(36,_2) + 5574 X_(37,_0) + 22623 X_(37,_4) + 14273 X_(37,_5)
      + 6089 X_(37,_21) + 15175 X_(37,_2) + 10206 X_(38,_0) + 14091 X_(38,_4)
      + 6813 X_(38,_5) + 10917 X_(38,_21) + 7617 X_(38,_2) + 21151 X_(39,_0)
      + 2113 X_(39,_4) + 4893 X_(39,_5) + 21842 X_(39,_21) + 4117 X_(39,_2)
      + 209615 X_(4,_0) + 62911 X_(4,_5) + 216137 X_(4,_21) + 56088 X_(4,_2)
      + 9209 X_(40,_0) + 13122 X_(40,_4) + 6444 X_(40,_5) + 9827 X_(40,_21)
      + 7172 X_(40,_2) + 18641 X_(41,_0) + 2545 X_(41,_4) + 3829 X_(41,_5)
      + 19270 X_(41,_21) + 3122 X_(41,_2) + 18990 X_(42,_0) + 648 X_(42,_4)
      + 5284 X_(42,_5) + 19617 X_(42,_21) + 4661 X_(42,_2) + 5235 X_(43,_0)
      + 10585 X_(43,_4) + 5844 X_(43,_5) + 5731 X_(43,_21) + 6374 X_(43,_2)
      + 251344 X_(44,_0) + 147122 X_(44,_4) + 27632 X_(44,_5)
      + 263613 X_(44,_21) + 41262 X_(44,_2) + 288398 X_(45,_0) + 89781 X_(45,_4)
      + 23676 X_(45,_5) + 299899 X_(45,_21) + 11897 X_(45,_2) + 237009 X_(46,_0)
      + 86941 X_(46,_4) + 10336 X_(46,_5) + 247051 X_(46,_21) + 5577 X_(46,_2)
      + 249435 X_(47,_0) + 20281 X_(47,_4) + 60796 X_(47,_5) + 257565 X_(47,_21)
      + 51884 X_(47,_2) + 196028 X_(48,_0) + 35803 X_(48,_4) + 34358 X_(48,_5)
      + 202687 X_(48,_21) + 26432 X_(48,_2) + 135308 X_(5,_0) + 57973 X_(5,_4)
      + 141213 X_(5,_21) + 6860 X_(5,_2) + 103517 X_(6,_0) + 74846 X_(6,_4)
      + 21370 X_(6,_5) + 109064 X_(6,_21) + 27446 X_(6,_2) + 108427 X_(7,_0)
      + 62091 X_(7,_4) + 10960 X_(7,_5) + 113687 X_(7,_21) + 16813 X_(7,_2)
      + 116872 X_(8,_0) + 53210 X_(8,_4) + 2278 X_(8,_5) + 122004 X_(8,_21)
      + 7983 X_(8,_2) + 15906 X_(9,_0) + 174301 X_(9,_4) + 123479 X_(9,_5)
      + 3897 X_(9,_21) + 128932 X_(9,_2) + 115800 Y_0 + 38400 Y_4 + 59200 Y_5
      + 62200 Y_21 + 72600 Y_2
Subject To
 demande_0: X_(0,_0) + X_(0,_4) + X_(0,_5) + X_(0,_21) + X_(0,_2) = 1
 demande_1: X_(1,_0) + X_(1,_4) + X_(1,_5) + X_(1,_21) + X_(1,_2) = 1
 demande_10: X_(10,_0) + X_(10,_4) + X_(10,_5) + X_(10,_21) + X_(10,_2) = 1
 demande_11: X_(11,_0) + X_(11,_4) + X_(11,_5) + X_(11,_21) + X_(11,_2) = 1
 demande_12: X_(12,_0) + X_(12,_4) + X_(12,_5) + X_(12,_21) + X_(12,_2) = 1
 demande_13: X_(13,_0) + X_(13,_4) + X_(13,_5) + X_(13,_21) + X_(13,_2) = 1
 demande_14: X_(14,_0) + X_(14,_4) + X_(14,_5) + X_(14,_21) + X_(14,_2) = 1
 demande_15: X_(15,_0) + X_(15,_4) + X_(15,_5) + X_(15,_21) + X_(15,_2) = 1
 demande_16: X_(16,_0) + X_(16,_4) + X_(16,_5) + X_(16,_21) + X_(16,_2) = 1
 demande_17: X_(17,_0) + X_(17,_4) + X_(17,_5) + X_(17,_21) + X_(17,_2) = 1
 demande_18: X_(18,_0) + X_(18,_4) + X_(18,_5) + X_(18,_21) + X_(18,_2) = 1
 demande_19: X_(19,_0) + X_(19,_4) + X_(19,_5) + X_(19,_21) + X_(19,_2) = 1
 demande_2: X_(2,_0) + X_(2,_4) + X_(2,_5) + X_(2,_21) + X_(2,_2) = 1
 demande_20: X_(20,_0) + X_(20,_4) + X_(20,_5) + X_(20,_21) + X_(20,_2) = 1
 demande_21: X_(21,_0) + X_(21,_4) + X_(21,_5) + X_(21,_21) + X_(21,_2) = 1
 demande_22: X_(22,_0) + X_(22,_4) + X_(22,_5) + X_(22,_21) + X_(22,_2) = 1
 demande_23: X_(23,_0) + X_(23,_4) + X_(23,_5) + X_(23,_21) + X_(23,_2) = 1
 demande_24: X_(24,_0) + X_(24,_4) + X_(24,_5) + X_(24,_21) + X_(24,_2) = 1
 demande_25: X_(25,_0) + X_(25,_4) + X_(25,_5) + X_(25,_21) + X_(25,_2) = 1
 demande_26: X_(26,_0) + X_(26,_4) + X_(26,_5) + X_(26,_21) + X_(26,_2) = 1
 demande_27: X_(27,_0) + X_(27,_4) + X_(27,_5) + X_(27,_21) + X_(27,_2) = 1
 demande_28: X_(28,_0) + X_(28,_4) + X_(28,_5) + X_(28,_21) + X_(28,_2) = 1
 demande_29: X_(29,_0) + X_(29,_4) + X_(29,_5) + X_(29,_21) + X_(29,_2) = 1
 demande_3: X_(3,_0) + X_(3,_4) + X_(3,_5) + X_(3,_21) + X_(3,_2) = 1
 demande_30: X_(30,_0) + X_(30,_4) + X_(30,_5) + X_(30,_21) + X_(30,_2) = 1
 demande_31: X_(31,_0) + X_(31,_4) + X_(31,_5) + X_(31,_21) + X_(31,_2) = 1
 demande_32: X_(32,_0) + X_(32,_4) + X_(32,_5) + X_(32,_21) + X_(32,_2) = 1
 demande_33: X_(33,_0) + X_(33,_4) + X_(33,_5) + X_(33,_21) + X_(33,_2) = 1
 demande_34: X_(34,_0) + X_(34,_4) + X_(34,_5) + X_(34,_21) + X_(34,_2) = 1
 demande_35: X_(35,_0) + X_(35,_4) + X_(35,_5) + X_(35,_21) + X_(35,_2) = 1
 demande_36: X_(36,_0) + X_(36,_4) + X_(36,_5) + X_(36,_21) + X_(36,_2) = 1
 demande_37: X_(37,_0) + X_(37,_4) + X_(37,_5) + X_(37,_21) + X_(37,_2) = 1
 demande_38: X_(38,_0) + X_(38,_4) + X_(38,_5) + X_(38,_21) + X_(38,_2) = 1
 demande_39: X_(39,_0) + X_(39,_4) + X_(39,_5) + X_(39,_21) + X_(39,_2) = 1
 demande_4: X_(4,_0) + X_(4,_4) + X_(4,_5) + X_(4,_21) + X_(4,_2) = 1
 demande_40: X_(40,_0) + X_(40,_4) + X_(40,_5) + X_(40,_21) + X_(40,_2) = 1
 demande_41: X_(41,_0) + X_(41,_4) + X_(41,_5) + X_(41,_21) + X_(41,_2) = 1
 demande_42: X_(42,_0) + X_(42,_4) + X_(42,_5) + X_(42,_21) + X_(42,_2) = 1
 demande_43: X_(43,_0) + X_(43,_4) + X_(43,_5) + X_(43,_21) + X_(43,_2) = 1
 demande_44: X_(44,_0) + X_(44,_4) + X_(44,_5) + X_(44,_21) + X_(44,_2) = 1
 demande_45: X_(45,_0) + X_(45,_4) + X_(45,_5) + X_(45,_21) + X_(45,_2) = 1
 demande_46: X_(46,_0) + X_(46,_4) + X_(46,_5) + X_(46,_21) + X_(46,_2) = 1
 demande_47: X_(47,_0) + X_(47,_4) + X_(47,_5) + X_(47,_21) + X_(47,_2) = 1
 demande_48: X_(48,_0) + X_(48,_4) + X_(48,_5) + X_(48,_21) + X_(48,_2) = 1
 demande_5: X_(5,_0) + X_(5,_4) + X_(5,_5) + X_(5,_21) + X_(5,_2) = 1
 demande_6: X_(6,_0) + X_(6,_4) + X_(6,_5) + X_(6,_21) + X_(6,_2) = 1
 demande_7: X_(7,_0) + X_(7,_4) + X_(7,_5) + X_(7,_21) + X_(7,_2) = 1
 demande_8: X_(8,_0) + X_(8,_4) + X_(8,_5) + X_(8,_21) + X_(8,_2) = 1
 demande_9: X_(9,_0) + X_(9,_4) + X_(9,_5) + X_(9,_21) + X_(9,_2) = 1
 flow_0_0: X_(0,_0) - Y_0 <= 0
 flow_0_4: X_(0,_4) - Y_4 <= 0
 flow_0_5: X_(0,_5) - Y_5 <= 0
 flow_0_21: X_(0,_21) - Y_21 <= 0
 flow_0_2: X_(0,_2) - Y_2 <= 0
 flow_1_0: X_(1,_0) - Y_0 <= 0
 flow_1_4: X_(1,_4) - Y_4 <= 0
 flow_1_5: X_(1,_5) - Y_5 <= 0
 flow_1_21: X_(1,_21) - Y_21 <= 0
 flow_1_2: X_(1,_2) - Y_2 <= 0
 flow_10_0: X_(10,_0) - Y_0 <= 0
 flow_10_4: X_(10,_4) - Y_4 <= 0
 flow_10_5: X_(10,_5) - Y_5 <= 0
 flow_10_21: X_(10,_21) - Y_21 <= 0
 flow_10_2: X_(10,_2) - Y_2 <= 0
 flow_11_0: X_(11,_0) - Y_0 <= 0
 flow_11_4: X_(11,_4) - Y_4 <= 0
 flow_11_5: X_(11,_5) - Y_5 <= 0
 flow_11_21: X_(11,_21) - Y_21 <= 0
 flow_11_2: X_(11,_2) - Y_2 <= 0
 flow_12_0: X_(12,_0) - Y_0 <= 0
 flow_12_4: X_(12,_4) - Y_4 <= 0
 flow_12_5: X_(12,_5) - Y_5 <= 0
 flow_12_21: X_(12,_21) - Y_21 <= 0
 flow_12_2: X_(12,_2) - Y_2 <= 0
 flow_13_0: X_(13,_0) - Y_0 <= 0
 flow_13_4: X_(13,_4) - Y_4 <= 0
 flow_13_5: X_(13,_5) - Y_5 <= 0
 flow_13_21: X_(13,_21) - Y_21 <= 0
 flow_13_2: X_(13,_2) - Y_2 <= 0
 flow_14_0: X_(14,_0) - Y_0 <= 0
 flow_14_4: X_(14,_4) - Y_4 <= 0
 flow_14_5: X_(14,_5) - Y_5 <= 0
 flow_14_21: X_(14,_21) - Y_21 <= 0
 flow_14_2: X_(14,_2) - Y_2 <= 0
 flow_15_0: X_(15,_0) - Y_0 <= 0
 flow_15_4: X_(15,_4) - Y_4 <= 0
 flow_15_5: X_(15,_5) - Y_5 <= 0
 flow_15_21: X_(15,_21) - Y_21 <= 0
 flow_15_2: X_(15,_2) - Y_2 <= 0
 flow_16_0: X_(16,_0) - Y_0 <= 0
 flow_16_4: X_(16,_4) - Y_4 <= 0
 flow_16_5: X_(16,_5) - Y_5 <= 0
 flow_16_21: X_(16,_21) - Y_21 <= 0
 flow_16_2: X_(16,_2) - Y_2 <= 0
 flow_17_0: X_(17,_0) - Y_0 <= 0
 flow_17_4: X_(17,_4) - Y_4 <= 0
 flow_17_5: X_(17,_5) - Y_5 <= 0
 flow_17_21: X_(17,_21) - Y_21 <= 0
 flow_17_2: X_(17,_2) - Y_2 <= 0
 flow_18_0: X_(18,_0) - Y_0 <= 0
 flow_18_4: X_(18,_4) - Y_4 <= 0
 flow_18_5: X_(18,_5) - Y_5 <= 0
 flow_18_21: X_(18,_21) - Y_21 <= 0
 flow_18_2: X_(18,_2) - Y_2 <= 0
 flow_19_0: X_(19,_0) - Y_0 <= 0
 flow_19_4: X_(19,_4) - Y_4 <= 0
 flow_19_5: X_(19,_5) - Y_5 <= 0
 flow_19_21: X_(19,_21) - Y_21 <= 0
 flow_19_2: X_(19,_2) - Y_2 <= 0
 flow_2_0: X_(2,_0) - Y_0 <= 0
 flow_2_4: X_(2,_4) - Y_4 <= 0
 flow_2_5: X_(2,_5) - Y_5 <= 0
 flow_2_21: X_(2,_21) - Y_21 <= 0
 flow_2_2: X_(2,_2) - Y_2 <= 0
 flow_20_0: X_(20,_0) - Y_0 <= 0
 flow_20_4: X_(20,_4) - Y_4 <= 0
 flow_20_5: X_(20,_5) - Y_5 <= 0
 flow_20_21: X_(20,_21) - Y_21 <= 0
 flow_20_2: X_(20,_2) - Y_2 <= 0
 flow_21_0: X_(21,_0) - Y_0 <= 0
 flow_21_4: X_(21,_4) - Y_4 <= 0
 flow_21_5: X_(21,_5) - Y_5 <= 0
 flow_21_21: X_(21,_21) - Y_21 <= 0
 flow_21_2: X_(21,_2) - Y_2 <= 0
 flow_22_0: X_(22,_0) - Y_0 <= 0
 flow_22_4: X_(22,_4) - Y_4 <= 0
 flow_22_5: X_(22,_5) - Y_5 <= 0
 flow_22_21: X_(22,_21) - Y_21 <= 0
 flow_22_2: X_(22,_2) - Y_2 <= 0
 flow_23_0: X_(23,_0) - Y_0 <= 0
 flow_23_4: X_(23,_4) - Y_4 <= 0
 flow_23_5: X_(23,_5) - Y_5 <= 0
 flow_23_21: X_(23,_21) - Y_21 <= 0
 flow_23_2: X_(23,_2) - Y_2 <= 0
 flow_24_0: X_(24,_0) - Y_0 <= 0
 flow_24_4: X_(24,_4) - Y_4 <= 0
 flow_24_5: X_(24,_5) - Y_5 <= 0
 flow_24_21: X_(24,_21) - Y_21 <= 0
 flow_24_2: X_(24,_2) - Y_2 <= 0
 flow_25_0: X_(25,_0) - Y_0 <= 0
 flow_25_4: X_(25,_4) - Y_4 <= 0
 flow_25_5: X_(25,_5) - Y_5 <= 0
 flow_25_21: X_(25,_21) - Y_21 <= 0
 flow_25_2: X_(25,_2) - Y_2 <= 0
 flow_26_0: X_(26,_0) - Y_0 <= 0
 flow_26_4: X_(26,_4) - Y_4 <= 0
 flow_26_5: X_(26,_5) - Y_5 <= 0
 flow_26_21: X_(26,_21) - Y_21 <= 0
 flow_26_2: X_(26,_2) - Y_2 <= 0
 flow_27_0: X_(27,_0) - Y_0 <= 0
 flow_27_4: X_(27,_4) - Y_4 <= 0
 flow_27_5: X_(27,_5) - Y_5 <= 0
 flow_27_21: X_(27,_21) - Y_21 <= 0
 flow_27_2: X_(27,_2) - Y_2 <= 0
 flow_28_0: X_(28,_0) - Y_0 <= 0
 flow_28_4: X_(28,_4) - Y_4 <= 0
 flow_28_5: X_(28,_5) - Y_5 <= 0
 flow_28_21: X_(28,_21) - Y_21 <= 0
 flow_28_2: X_(28,_2) - Y_2 <= 0
 flow_29_0: X_(29,_0) - Y_0 <= 0
 flow_29_4: X_(29,_4) - Y_4 <= 0
 flow_29_5: X_(29,_5) - Y_5 <= 0
 flow_29_21: X_(29,_21) - Y_21 <= 0
 flow_29_2: X_(29,_2) - Y_2 <= 0
 flow_3_0: X_(3,_0) - Y_0 <= 0
 flow_3_4: X_(3,_4) - Y_4 <= 0
 flow_3_5: X_(3,_5) - Y_5 <= 0
 flow_3_21: X_(3,_21) - Y_21 <= 0
 flow_3_2: X_(3,_2) - Y_2 <= 0
 flow_30_0: X_(30,_0) - Y_0 <= 0
 flow_30_4: X_(30,_4) - Y_4 <= 0
 flow_30_5: X_(30,_5) - Y_5 <= 0
 flow_30_21: X_(30,_21) - Y_21 <= 0
 flow_30_2: X_(30,_2) - Y_2 <= 0
 flow_31_0: X_(31,_0) - Y_0 <= 0
 flow_31_4: X_(31,_4) - Y_4 <= 0
 flow_31_5: X_(31,_5) - Y_5 <= 0
 flow_31_21: X_(31,_21) - Y_21 <= 0
 flow_31_2: X_(31,_2) - Y_2 <= 0
 flow_32_0: X_(32,_0) - Y_0 <= 0
 flow_32_4: X_(32,_4) - Y_4 <= 0
 flow_32_5: X_(32,_5) - Y_5 <= 0
 flow_32_21: X_(32,_21) - Y_21 <= 0
 flow_32_2: X_(32,_2) - Y_2 <= 0
 flow_33_0: X_(33,_0) - Y_0 <= 0
 flow_33_4: X_(33,_4) - Y_4 <= 0
 flow_33_5: X_(33,_5) - Y_5 <= 0
 flow_33_21: X_(33,_21) - Y_21 <= 0
 flow_33_2: X_(33,_2) - Y_2 <= 0
 flow_34_0: X_(34,_0) - Y_0 <= 0
 flow_34_4: X_(34,_4) - Y_4 <= 0
 flow_34_5: X_(34,_5) - Y_5 <= 0
 flow_34_21: X_(34,_21) - Y_21 <= 0
 flow_34_2: X_(34,_2) - Y_2 <= 0
 flow_35_0: X_(35,_0) - Y_0 <= 0
 flow_35_4: X_(35,_4) - Y_4 <= 0
 flow_35_5: X_(35,_5) - Y_5 <= 0
 flow_35_21: X_(35,_21) - Y_21 <= 0
 flow_35_2: X_(35,_2) - Y_2 <= 0
 flow_36_0: X_(36,_0) - Y_0 <= 0
 flow_36_4: X_(36,_4) - Y_4 <= 0
 flow_36_5: X_(36,_5) - Y_5 <= 0
 flow_36_21: X_(36,_21) - Y_21 <= 0
 flow_36_2: X_(36,_2) - Y_2 <= 0
 flow_37_0: X_(37,_0) - Y_0 <= 0
 flow_37_4: X_(37,_4) - Y_4 <= 0
 flow_37_5: X_(37,_5) - Y_5 <= 0
 flow_37_21: X_(37,_21) - Y_21 <= 0
 flow_37_2: X_(37,_2) - Y_2 <= 0
 flow_38_0: X_(38,_0) - Y_0 <= 0
 flow_38_4: X_(38,_4) - Y_4 <= 0
 flow_38_5: X_(38,_5) - Y_5 <= 0
 flow_38_21: X_(38,_21) - Y_21 <= 0
 flow_38_2: X_(38,_2) - Y_2 <= 0
 flow_39_0: X_(39,_0) - Y_0 <= 0
 flow_39_4: X_(39,_4) - Y_4 <= 0
 flow_39_5: X_(39,_5) - Y_5 <= 0
 flow_39_21: X_(39,_21) - Y_21 <= 0
 flow_39_2: X_(39,_2) - Y_2 <= 0
 flow_4_0: X_(4,_0) - Y_0 <= 0
 flow_4_4: X_(4,_4) - Y_4 <= 0
 flow_4_5: X_(4,_5) - Y_5 <= 0
 flow_4_21: X_(4,_21) - Y_21 <= 0
 flow_4_2: X_(4,_2) - Y_2 <= 0
 flow_40_0: X_(40,_0) - Y_0 <= 0
 flow_40_4: X_(40,_4) - Y_4 <= 0
 flow_40_5: X_(40,_5) - Y_5 <= 0
 flow_40_21: X_(40,_21) - Y_21 <= 0
 flow_40_2: X_(40,_2) - Y_2 <= 0
 flow_41_0: X_(41,_0) - Y_0 <= 0
 flow_41_4: X_(41,_4) - Y_4 <= 0
 flow_41_5: X_(41,_5) - Y_5 <= 0
 flow_41_21: X_(41,_21) - Y_21 <= 0
 flow_41_2: X_(41,_2) - Y_2 <= 0
 flow_42_0: X_(42,_0) - Y_0 <= 0
 flow_42_4: X_(42,_4) - Y_4 <= 0
 flow_42_5: X_(42,_5) - Y_5 <= 0
 flow_42_21: X_(42,_21) - Y_21 <= 0
 flow_42_2: X_(42,_2) - Y_2 <= 0
 flow_43_0: X_(43,_0) - Y_0 <= 0
 flow_43_4: X_(43,_4) - Y_4 <= 0
 flow_43_5: X_(43,_5) - Y_5 <= 0
 flow_43_21: X_(43,_21) - Y_21 <= 0
 flow_43_2: X_(43,_2) - Y_2 <= 0
 flow_44_0: X_(44,_0) - Y_0 <= 0
 flow_44_4: X_(44,_4) - Y_4 <= 0
 flow_44_5: X_(44,_5) - Y_5 <= 0
 flow_44_21: X_(44,_21) - Y_21 <= 0
 flow_44_2: X_(44,_2) - Y_2 <= 0
 flow_45_0: X_(45,_0) - Y_0 <= 0
 flow_45_4: X_(45,_4) - Y_4 <= 0
 flow_45_5: X_(45,_5) - Y_5 <= 0
 flow_45_21: X_(45,_21) - Y_21 <= 0
 flow_45_2: X_(45,_2) - Y_2 <= 0
 flow_46_0: X_(46,_0) - Y_0 <= 0
 flow_46_4: X_(46,_4) - Y_4 <= 0
 flow_46_5: X_(46,_5) - Y_5 <= 0
 flow_46_21: X_(46,_21) - Y_21 <= 0
 flow_46_2: X_(46,_2) - Y_2 <= 0
 flow_47_0: X_(47,_0) - Y_0 <= 0
 flow_47_4: X_(47,_4) - Y_4 <= 0
 flow_47_5: X_(47,_5) - Y_5 <= 0
 flow_47_21: X_(47,_21) - Y_21 <= 0
 flow_47_2: X_(47,_2) - Y_2 <= 0
 flow_48_0: X_(48,_0) - Y_0 <= 0
 flow_48_4: X_(48,_4) - Y_4 <= 0
 flow_48_5: X_(48,_5) - Y_5 <= 0
 flow_48_21: X_(48,_21) - Y_21 <= 0
 flow_48_2: X_(48,_2) - Y_2 <= 0
 flow_5_0: X_(5,_0) - Y_0 <= 0
 flow_5_4: X_(5,_4) - Y_4 <= 0
 flow_5_5: X_(5,_5) - Y_5 <= 0
 flow_5_21: X_(5,_21) - Y_21 <= 0
 flow_5_2: X_(5,_2) - Y_2 <= 0
 flow_6_0: X_(6,_0) - Y_0 <= 0
 flow_6_4: X_(6,_4) - Y_4 <= 0
 flow_6_5: X_(6,_5) - Y_5 <= 0
 flow_6_21: X_(6,_21) - Y_21 <= 0
 flow_6_2: X_(6,_2) - Y_2 <= 0
 flow_7_0: X_(7,_0) - Y_0 <= 0
 flow_7_4: X_(7,_4) - Y_4 <= 0
 flow_7_5: X_(7,_5) - Y_5 <= 0
 flow_7_21: X_(7,_21) - Y_21 <= 0
 flow_7_2: X_(7,_2) - Y_2 <= 0
 flow_8_0: X_(8,_0) - Y_0 <= 0
 flow_8_4: X_(8,_4) - Y_4 <= 0
 flow_8_5: X_(8,_5) - Y_5 <= 0
 flow_8_21: X_(8,_21) - Y_21 <= 0
 flow_8_2: X_(8,_2) - Y_2 <= 0
 flow_9_0: X_(9,_0) - Y_0 <= 0
 flow_9_4: X_(9,_4) - Y_4 <= 0
 flow_9_5: X_(9,_5) - Y_5 <= 0
 flow_9_21: X_(9,_21) - Y_21 <= 0
 flow_9_2: X_(9,_2) - Y_2 <= 0

Bounds
0 <= X_(0,_0) <= 1
0 <= X_(0,_4) <= 1
0 <= X_(0,_5) <= 1
0 <= X_(0,_21) <= 1
0 <= X_(0,_2) <= 1
0 <= X_(1,_0) <= 1
0 <= X_(1,_4) <= 1
0 <= X_(1,_5) <= 1
0 <= X_(1,_21) <= 1
0 <= X_(1,_2) <= 1
0 <= X_(10,_0) <= 1
0 <= X_(10,_4) <= 1
0 <= X_(10,_5) <= 1
0 <= X_(10,_21) <= 1
0 <= X_(10,_2) <= 1
0 <= X_(11,_0) <= 1
0 <= X_(11,_4) <= 1
0 <= X_(11,_5) <= 1
0 <= X_(11,_21) <= 1
0 <= X_(11,_2) <= 1
0 <= X_(12,_0) <= 1
0 <= X_(12,_4) <= 1
0 <= X_(12,_5) <= 1
0 <= X_(12,_21) <= 1
0 <= X_(12,_2) <= 1
0 <= X_(13,_0) <= 1
0 <= X_(13,_4) <= 1
0 <= X_(13,_5) <= 1
0 <= X_(13,_21) <= 1
0 <= X_(13,_2) <= 1
0 <= X_(14,_0) <= 1
0 <= X_(14,_4) <= 1
0 <= X_(14,_5) <= 1
0 <= X_(14,_21) <= 1
0 <= X_(14,_2) <= 1
0 <= X_(15,_0) <= 1
0 <= X_(15,_4) <= 1
0 <= X_(15,_5) <= 1
0 <= X_(15,_21) <= 1
0 <= X_(15,_2) <= 1
0 <= X_(16,_0) <= 1
0 <= X_(16,_4) <= 1
0 <= X_(16,_5) <= 1
0 <= X_(16,_21) <= 1
0 <= X_(16,_2) <= 1
0 <= X_(17,_0) <= 1
0 <= X_(17,_4) <= 1
0 <= X_(17,_5) <= 1
0 <= X_(17,_21) <= 1
0 <= X_(17,_2) <= 1
0 <= X_(18,_0) <= 1
0 <= X_(18,_4) <= 1
0 <= X_(18,_5) <= 1
0 <= X_(18,_21) <= 1
0 <= X_(18,_2) <= 1
0 <= X_(19,_0) <= 1
0 <= X_(19,_4) <= 1
0 <= X_(19,_5) <= 1
0 <= X_(19,_21) <= 1
0 <= X_(19,_2) <= 1
0 <= X_(2,_0) <= 1
0 <= X_(2,_4) <= 1
0 <= X_(2,_5) <= 1
0 <= X_(2,_21) <= 1
0 <= X_(2,_2) <= 1
0 <= X_(20,_0) <= 1
0 <= X_(20,_4) <= 1
0 <= X_(20,_5) <= 1
0 <= X_(20,_21) <= 1
0 <= X_(20,_2) <= 1
0 <= X_(21,_0) <= 1
0 <= X_(21,_4) <= 1
0 <= X_(21,_5) <= 1
0 <= X_(21,_21) <= 1
0 <= X_(21,_2) <= 1
0 <= X_(22,_0) <= 1
0 <= X_(22,_4) <= 1
0 <= X_(22,_5) <= 1
0 <= X_(22,_21) <= 1
0 <= X_(22,_2) <= 1
0 <= X_(23,_0) <= 1
0 <= X_(23,_4) <= 1
0 <= X_(23,_5) <= 1
0 <= X_(23,_21) <= 1
0 <= X_(23,_2) <= 1
0 <= X_(24,_0) <= 1
0 <= X_(24,_4) <= 1
0 <= X_(24,_5) <= 1
0 <= X_(24,_21) <= 1
0 <= X_(24,_2) <= 1
0 <= X_(25,_0) <= 1
0 <= X_(25,_4) <= 1
0 <= X_(25,_5) <= 1
0 <= X_(25,_21) <= 1
0 <= X_(25,_2) <= 1
0 <= X_(26,_0) <= 1
0 <= X_(26,_4) <= 1
0 <= X_(26,_5) <= 1
0 <= X_(26,_21) <= 1
0 <= X_(26,_2) <= 1
0 <= X_(27,_0) <= 1
0 <= X_(27,_4) <= 1
0 <= X_(27,_5) <= 1
0 <= X_(27,_21) <= 1
0 <= X_(27,_2) <= 1
0 <= X_(28,_0) <= 1
0 <= X_(28,_4) <= 1
0 <= X_(28,_5) <= 1
0 <= X_(28,_21) <= 1
0 <= X_(28,_2) <= 1
0 <= X_(29,_0) <= 1
0 <= X_(29,_4) <= 1
0 <= X_(29,_5) <= 1
0 <= X_(29,_21) <= 1
0 <= X_(29,_2) <= 1
0 <= X_(3,_0) <= 1
0 <= X_(3,_4) <= 1
0 <= X_(3,_5) <= 1
0 <= X_(3,_21) <= 1
0 <= X_(3,_2) <= 1
0 <= X_(30,_0) <= 1
0 <= X_(30,_4) <= 1
0 <= X_(30,_5) <= 1
0 <= X_(30,_21) <= 1
0 <= X_(30,_2) <= 1
0 <= X_(31,_0) <= 1
0 <= X_(31,_4) <= 1
0 <= X_(31,_5) <= 1
0 <= X_(31,_21) <= 1
0 <= X_(31,_2) <= 1
0 <= X_(32,_0) <= 1
0 <= X_(32,_4) <= 1
0 <= X_(32,_5) <= 1
0 <= X_(32,_21) <= 1
0 <= X_(32,_2) <= 1
0 <= X_(33,_0) <= 1
0 <= X_(33,_4) <= 1
0 <= X_(33,_5) <= 1
0 <= X_(33,_21) <= 1
0 <= X_(33,_2) <= 1
0 <= X_(34,_0) <= 1
0 <= X_(34,_4) <= 1
0 <= X_(34,_5) <= 1
0 <= X_(34,_21) <= 1
0 <= X_(34,_2) <= 1
0 <= X_(35,_0) <= 1
0 <= X_(35,_4) <= 1
0 <= X_(35,_5) <= 1
0 <= X_(35,_21) <= 1
0 <= X_(35,_2) <= 1
0 <= X_(36,_0) <= 1
0 <= X_(36,_4) <= 1
0 <= X_(36,_5) <= 1
0 <= X_(36,_21) <= 1
0 <= X_(36,_2) <= 1
0 <= X_(37,_0) <= 1
0 <= X_(37,_4) <= 1
0 <= X_(37,_5) <= 1
0 <= X_(37,_21) <= 1
0 <= X_(37,_2) <= 1
0 <= X_(38,_0) <= 1
0 <= X_(38,_4) <= 1
0 <= X_(38,_5) <= 1
0 <= X_(38,_21) <= 1
0 <= X_(38,_2) <= 1
0 <= X_(39,_0) <= 1
0 <= X_(39,_4) <= 1
0 <= X_(39,_5) <= 1
0 <= X_(39,_21) <= 1
0 <= X_(39,_2) <= 1
0 <= X_(4,_0) <= 1
0 <= X_(4,_4) <= 1
0 <= X_(4,_5) <= 1
0 <= X_(4,_21) <= 1
0 <= X_(4,_2) <= 1
0 <= X_(40,_0) <= 1
0 <= X_(40,_4) <= 1
0 <= X_(40,_5) <= 1
0 <= X_(40,_21) <= 1
0 <= X_(40,_2) <= 1
0 <= X_(41,_0) <= 1
0 <= X_(41,_4) <= 1
0 <= X_(41,_5) <= 1
0 <= X_(41,_21) <= 1
0 <= X_(41,_2) <= 1
0 <= X_(42,_0) <= 1
0 <= X_(42,_4) <= 1
0 <= X_(42,_5) <= 1
0 <= X_(42,_21) <= 1
0 <= X_(42,_2) <= 1
0 <= X_(43,_0) <= 1
0 <= X_(43,_4) <= 1
0 <= X_(43,_5) <= 1
0 <= X_(43,_21) <= 1
0 <= X_(43,_2) <= 1
0 <= X_(44,_0) <= 1
0 <= X_(44,_4) <= 1
0 <= X_(44,_5) <= 1
0 <= X_(44,_21) <= 1
0 <= X_(44,_2) <= 1
0 <= X_(45,_0) <= 1
0 <= X_(45,_4) <= 1
0 <= X_(45,_5) <= 1
0 <= X_(45,_21) <= 1
0 <= X_(45,_2) <= 1
0 <= X_(46,_0) <= 1
0 <= X_(46,_4) <= 1
0 <= X_(46,_5) <= 1
0 <= X_(46,_21) <= 1
0 <= X_(46,_2) <= 1
0 <= X_(47,_0) <= 1
0 <= X_(47,_4) <= 1
0 <= X_(47,_5) <= 1
0 <= X_(47,_21) <= 1
0 <= X_(47,_2) <= 1
0 <= X_(48,_0) <= 1
0 <= X_(48,_4) <= 1
0 <= X_(48,_5) <= 1
0 <= X_(48,_21) <= 1
0 <= X_(48,_2) <= 1
0 <= X_(5,_0) <= 1
0 <= X_(5,_4) <= 1
0 <= X_(5,_5) <= 1
0 <= X_(5,_21) <= 1
0 <= X_(5,_2) <= 1
0 <= X_(6,_0) <= 1
0 <= X_(6,_4) <= 1
0 <= X_(6,_5) <= 1
0 <= X_(6,_21) <= 1
0 <= X_(6,_2) <= 1
0 <= X_(7,_0) <= 1
0 <= X_(7,_4) <= 1
0 <= X_(7,_5) <= 1
0 <= X_(7,_21) <= 1
0 <= X_(7,_2) <= 1
0 <= X_(8,_0) <= 1
0 <= X_(8,_4) <= 1
0 <= X_(8,_5) <= 1
0 <= X_(8,_21) <= 1
0 <= X_(8,_2) <= 1
0 <= X_(9,_0) <= 1
0 <= X_(9,_4) <= 1
0 <= X_(9,_5) <= 1
0 <= X_(9,_21) <= 1
0 <= X_(9,_2) <= 1
0 <= Y_0 <= 1
0 <= Y_4 <= 1
0 <= Y_5 <= 1
0 <= Y_21 <= 1
0 <= Y_2 <= 1

Binaries
 X_(0,_0) X_(0,_4) X_(0,_5) X_(0,_21) X_(0,_2) X_(1,_0) X_(1,_4) X_(1,_5)
 X_(1,_21) X_(1,_2) X_(10,_0) X_(10,_4) X_(10,_5) X_(10,_21) X_(10,_2) X_(11,_0)
 X_(11,_4) X_(11,_5) X_(11,_21) X_(11,_2) X_(12,_0) X_(12,_4) X_(12,_5)
 X_(12,_21) X_(12,_2) X_(13,_0) X_(13,_4) X_(13,_5) X_(13,_21) X_(13,_2)
 X_(14,_0) X_(14,_4) X_(14,_5) X_(14,_21) X_(14,_2) X_(15,_0) X_(15,_4)
 X_(15,_5) X_(15,_21) X_(15,_2) X_(16,_0) X_(16,_4) X_(16,_5) X_(16,_21)
 X_(16,_2) X_(17,_0) X_(17,_4) X_(17,_5) X_(17,_21) X_(17,_2) X_(18,_0)
 X_(18,_4) X_(18,_5) X_(18,_21) X_(18,_2) X_(19,_0) X_(19,_4) X_(19,_5)
 X_(19,_21) X_(19,_2) X_(2,_0) X_(2,_4) X_(2,_5) X_(2,_21) X_(2,_2) X_(20,_0)
 X_(20,_4) X_(20,_5) X_(20,_21) X_(20,_2) X_(21,_0) X_(21,_4) X_(21,_5)
 X_(21,_21) X_(21,_2) X_(22,_0) X_(22,_4) X_(22,_5) X_(22,_21) X_(22,_2)
 X_(23,_0) X_(23,_4) X_(23,_5) X_(23,_21) X_(23,_2) X_(24,_0) X_(24,_4)
 X_(24,_5) X_(24,_21) X_(24,_2) X_(25,_0) X_(25,_4) X_(25,_5) X_(25,_21)
 X_(25,_2) X_(26,_0) X_(26,_4) X_(26,_5) X_(26,_21) X_(26,_2) X_(27,_0)
 X_(27,_4) X_(27,_5) X_(27,_21) X_(27,_2) X_(28,_0) X_(28,_4) X_(28,_5)
 X_(28,_21) X_(28,_2) X_(29,_0) X_(29,_4) X_(29,_5) X_(29,_21) X_(29,_2)
 X_(3,_0) X_(3,_4) X_(3,_5) X_(3,_21) X_(3,_2) X_(30,_0) X_(30,_4) X_(30,_5)
 X_(30,_21) X_(30,_2) X_(31,_0) X_(31,_4) X_(31,_5) X_(31,_21) X_(31,_2)
 X_(32,_0) X_(32,_4) X_(32,_5) X_(32,_21) X_(32,_2) X_(33,_0) X_(33,_4)
 X_(33,_5) X_(33,_21) X_(33,_2) X_(34,_0) X_(34,_4) X_(34,_5) X_(34,_21)
 X_(34,_2) X_(35,_0) X_(35,_4) X_(35,_5) X_(35,_21) X_(35,_2) X_(36,_0)
 X_(36,_4) X_(36,_5) X_(36,_21) X_(36,_2) X_(37,_0) X_(37,_4) X_(37,_5)
 X_(37,_21) X_(37,_2) X_(38,_0) X_(38,_4) X_(38,_5) X_(38,_21) X_(38,_2)
 X_(39,_0) X_(39,_4) X_(39,_5) X_(39,_21) X_(39,_2) X_(4,_0) X_(4,_4) X_(4,_5)
 X_(4,_21) X_(4,_2) X_(40,_0) X_(40,_4) X_(40,_5) X_(40,_21) X_(40,_2) X_(41,_0)
 X_(41,_4) X_(41,_5) X_(41,_21) X_(41,_2) X_(42,_0) X_(42,_4) X_(42,_5)
 X_(42,_21) X_(42,_2) X_(43,_0) X_(43,_4) X_(43,_5) X_(43,_21) X_(43,_2)
 X_(44,_0) X_(44,_4) X_(44,_5) X_(44,_21) X_(44,_2) X_(45,_0) X_(45,_4)
 X_(45,_5) X_(45,_21) X_(45,_2) X_(46,_0) X_(46,_4) X_(46,_5) X_(46,_21)
 X_(46,_2) X_(47,_0) X_(47,_4) X_(47,_5) X_(47,_21) X_(47,_2) X_(48,_0)
 X_(48,_4) X_(48,_5) X_(48,_21) X_(48,_2) X_(5,_0) X_(5,_4) X_(5,_5) X_(5,_21)
 X_(5,_2) X_(6,_0) X_(6,_4) X_(6,_5) X_(6,_21) X_(6,_2) X_(7,_0) X_(7,_4)
 X_(7,_5) X_(7,_21) X_(7,_2) X_(8,_0) X_(8,_4) X_(8,_5) X_(8,_21) X_(8,_2)
 X_(9,_0) X_(9,_4) X_(9,_5) X_(9,_21) X_(9,_2) Y_0 Y_4 Y_5 Y_21 Y_2
End
